54
75
60	12
59	17
58	16
57	10
56	12
55	15
54	14
53	16
52	14
51	16
50	12
49	17
48	18
47	13
46	10
45	21
44	10
43	12
42	12
41	17
40	10
39	16
38	21
37	16
36	20
35	10
34	15
33	8
32	13
31	10
30	14
29	14
28	16
27	21
26	10
25	9
24	16
23	19
22	10
21	8
20	19
19	19
18	12
17	8
16	9
15	11
14	14
13	17
12	15
11	18
10	22
9	11
8	5
7	10
